networks/zoo_109_594/zoo_109_594-lower.txt
Number of groups: 75
Flow 4: {1 30 0} {30 32 0} {32 24 0} {24 79 0} 
Flow 15: {2 5 0} {5 50 0} {50 17 0} {17 72 0} 
Flow 35: {3 30 0} {30 51 0} {51 33 0} {33 88 0} 
Flow 44: {4 32 0} {32 30 0} {30 3 0} {3 58 0} 
Flow 82: {6 50 0} {50 39 0} {39 94 0} 
Flow 99: {8 5 0} 
Flow 104: {9 5 0} {5 60 0} 
Flow 106: {20 19 0} {19 11 0} {11 66 0} 
Flow 113: {20 22 0} {22 77 0} 
Flow 119: {9 50 0} {50 32 0} {32 33 0} 
Flow 122: {17 36 0} {36 91 0} 
Flow 123: {9 39 0} 
Flow 131: {10 9 0} 
Flow 133: {11 19 0} {19 20 0} 
Flow 136: {12 26 0} {26 13 0} 
Flow 176: {15 29 0} {29 30 0} {30 85 0} 
Flow 181: {16 51 0} {51 32 0} 
Flow 203: {18 20 0} {20 9 0} {9 41 0} {41 13 0} 
Flow 219: {20 17 0} {17 44 0} {44 99 0} 
Flow 224: {21 20 0} 
Flow 235: {23 32 0} {32 34 0} {34 54 0} {54 109 0} 
Flow 237: {24 32 0} 
Flow 243: {25 50 0} {50 105 0} 
Flow 259: {54 34 0} {34 89 0} 
Flow 260: {26 54 0} {54 35 0} {35 90 0} 
Flow 270: {27 26 0} 
Flow 272: {28 29 0} {29 13 0} {13 68 0} 
Flow 294: {5 2 0} {2 57 0} 
Flow 300: {13 50 0} {50 5 0} {5 8 0} {8 63 0} 
Flow 302: {9 10 0} {10 65 0} 
Flow 306: {30 29 0} {29 15 0} {15 70 0} 
Flow 309: {9 20 0} {20 18 0} {18 73 0} 
Flow 312: {20 21 0} {21 76 0} 
Flow 317: {13 26 0} {26 27 0} {27 82 0} 
Flow 319: {30 14 0} {14 31 0} {31 86 0} 
Flow 325: {44 37 0} {37 92 0} 
Flow 326: {17 38 0} {38 93 0} 
Flow 328: {41 9 0} {9 40 0} {40 95 0} 
Flow 329: {13 41 0} {41 96 0} 
Flow 330: {44 42 0} {42 97 0} 
Flow 331: {44 43 0} {43 98 0} 
Flow 333: {13 44 0} {44 45 0} {45 100 0} 
Flow 336: {32 35 0} {35 49 0} {49 104 0} 
Flow 343: {31 14 0} {14 32 0} 
Flow 347: {32 4 0} {4 59 0} 
Flow 355: {32 14 0} {14 69 0} 
Flow 359: {19 74 0} 
Flow 363: {32 23 0} {23 78 0} 
Flow 376: {7 40 0} 
Flow 381: {32 46 0} {46 101 0} 
Flow 388: {33 32 0} 
Flow 393: {34 32 0} {32 50 0} 
Flow 410: {35 32 0} {32 87 0} 
Flow 414: {35 54 0} 
Flow 419: {36 17 0} {17 50 0} 
Flow 420: {37 44 0} 
Flow 423: {38 17 0} 
Flow 430: {39 50 0} {50 13 0} {13 29 0} {29 16 0} {16 71 0} 
Flow 450: {40 7 0} {7 50 0} {50 54 0} 
Flow 461: {42 44 0} {44 13 0} 
Flow 474: {44 17 0} {17 20 0} {20 75 0} 
Flow 490: {45 44 0} 
Flow 491: {46 32 0} 
Flow 523: {47 30 0} {30 13 0} {13 52 0} {52 107 0} 
Flow 525: {48 14 0} {14 30 0} 
Flow 533: {50 7 0} {7 62 0} 
Flow 534: {50 9 0} {9 64 0} 
Flow 547: {50 25 0} {25 80 0} 
Flow 567: {32 51 0} {51 106 0} 
Flow 570: {51 30 0} {30 1 0} {1 56 0} 
Flow 574: {51 16 0} {16 29 0} {29 84 0} 
Flow 587: {52 13 0} {13 30 0} {30 47 0} {47 102 0} 
Flow 590: {54 50 0} {50 6 0} {6 61 0} 
Flow 592: {54 26 0} 
Flow 594: {55 41 0} 
Time taken running everything: 2 seconds
