networks/zoo_109_594/zoo_109_594-lower.sol
<?xml version = "1.0" encoding="UTF-8" standalone="yes"?>
<CPLEXSolution version="1.2">
 <header
   problemName="networks/zoo_109_594/zoo_109_594-lower.lp"
   solutionName="incumbent"
   solutionIndex="-1"
   objectiveValue="49"
   solutionTypeValue="3"
   solutionTypeString="primal"
   solutionStatusValue="101"
   solutionStatusString="integer optimal solution"
   solutionMethodString="mip"
   primalFeasible="1"
   dualFeasible="1"
   MIPNodes="0"
   MIPIterations="0"
   writeLevel="3"/>
 <quality
   epInt="1.0000000000000001e-05"
   epRHS="9.9999999999999995e-07"
   maxIntInfeas="0"
   maxPrimalInfeas="0"
   maxX="1"
   maxSlack="1"/>
 <variables>
  <variable name="Y(1,6)" index="5" value="1"/>
  <variable name="Y(2,13)" index="115" value="1"/>
  <variable name="Y(3,17)" index="222" value="1"/>
  <variable name="Y(4,24)" index="332" value="1"/>
  <variable name="Y(5,29)" index="440" value="1"/>
  <variable name="Y(6,30)" index="544" value="1"/>
  <variable name="Y(7,32)" index="649" value="1"/>
  <variable name="Y(8,44)" index="764" value="1"/>
  <variable name="Y(9,47)" index="870" value="1"/>
  <variable name="Y(10,50)" index="976" value="1"/>
  <variable name="Y(11,54)" index="1082" value="1"/>
  <variable name="Y(12,1)" index="1133" value="1"/>
  <variable name="Y(23,4)" index="2269" value="1"/>
  <variable name="Y(24,5)" index="2373" value="1"/>
  <variable name="Y(26,9)" index="2583" value="1"/>
  <variable name="Y(28,16)" index="2796" value="1"/>
  <variable name="Y(30,20)" index="3006" value="1"/>
  <variable name="Y(35,33)" index="3534" value="1"/>
  <variable name="Y(36,35)" index="3639" value="1"/>
  <variable name="Y(37,39)" index="3746" value="1"/>
  <variable name="Y(39,46)" index="3959" value="1"/>
  <variable name="Y(44,3)" index="4431" value="1"/>
  <variable name="Y(106,11)" index="10825" value="1"/>
  <variable name="Y(108,14)" index="11034" value="1"/>
  <variable name="Y(111,19)" index="11348" value="1"/>
  <variable name="Y(113,22)" index="11557" value="1"/>
  <variable name="Y(114,23)" index="11661" value="1"/>
  <variable name="Y(120,34)" index="12290" value="1"/>
  <variable name="Y(122,36)" index="12498" value="1"/>
  <variable name="Y(124,41)" index="12709" value="1"/>
  <variable name="Y(129,52)" index="13235" value="1"/>
  <variable name="Y(294,2)" index="30180" value="1"/>
  <variable name="Y(299,7)" index="30700" value="1"/>
  <variable name="Y(300,8)" index="30804" value="1"/>
  <variable name="Y(302,10)" index="31012" value="1"/>
  <variable name="Y(306,15)" index="31429" value="1"/>
  <variable name="Y(309,18)" index="31741" value="1"/>
  <variable name="Y(312,21)" index="32053" value="1"/>
  <variable name="Y(316,25)" index="32469" value="1"/>
  <variable name="Y(317,27)" index="32574" value="1"/>
  <variable name="Y(319,31)" index="32784" value="1"/>
  <variable name="Y(325,37)" index="33408" value="1"/>
  <variable name="Y(326,38)" index="33512" value="1"/>
  <variable name="Y(328,40)" index="33720" value="1"/>
  <variable name="Y(330,42)" index="33928" value="1"/>
  <variable name="Y(331,43)" index="34032" value="1"/>
  <variable name="Y(333,45)" index="34240" value="1"/>
  <variable name="Y(336,49)" index="34553" value="1"/>
  <variable name="Y(338,51)" index="34761" value="1"/>
  <variable name="X(1,30,1)" index="61182" value="1"/>
  <variable name="X(1,56,12)" index="61787" value="1"/>
  <variable name="X(2,5,12)" index="62381" value="1"/>
  <variable name="X(2,57,294)" index="63257" value="1"/>
  <variable name="X(3,30,22)" index="63579" value="1"/>
  <variable name="X(3,58,44)" index="64195" value="1"/>
  <variable name="X(4,32,43)" index="64788" value="1"/>
  <variable name="X(4,59,23)" index="65362" value="1"/>
  <variable name="X(5,2,294)" index="66227" value="1"/>
  <variable name="X(5,8,300)" index="66827" value="1"/>
  <variable name="X(5,50,12)" index="67133" value="1"/>
  <variable name="X(5,60,24)" index="67739" value="1"/>
  <variable name="X(6,50,69)" index="68378" value="1"/>
  <variable name="X(6,61,1)" index="68904" value="1"/>
  <variable name="X(7,40,376)" index="69873" value="1"/>
  <variable name="X(7,50,88)" index="70179" value="1"/>
  <variable name="X(7,62,299)" index="70984" value="1"/>
  <variable name="X(8,5,98)" index="71377" value="1"/>
  <variable name="X(8,63,300)" index="72173" value="1"/>
  <variable name="X(9,5,104)" index="72571" value="1"/>
  <variable name="X(9,10,302)" index="73363" value="1"/>
  <variable name="X(9,20,30)" index="73685" value="1"/>
  <variable name="X(9,39,123)" index="74372" value="1"/>
  <variable name="X(9,40,328)" index="75171" value="1"/>
  <variable name="X(9,41,101)" index="75538" value="1"/>
  <variable name="X(9,50,103)" index="76134" value="1"/>
  <variable name="X(9,64,26)" index="76651" value="1"/>
  <variable name="X(10,9,131)" index="77350" value="1"/>
  <variable name="X(10,65,302)" index="78115" value="1"/>
  <variable name="X(11,19,132)" index="78539" value="1"/>
  <variable name="X(11,66,106)" index="79107" value="1"/>
  <variable name="X(12,26,135)" index="79730" value="1"/>
  <variable name="X(13,26,317)" index="80506" value="1"/>
  <variable name="X(13,29,16)" index="80799" value="1"/>
  <variable name="X(13,30,12)" index="81389" value="1"/>
  <variable name="X(13,41,26)" index="81997" value="1"/>
  <variable name="X(13,44,3)" index="82568" value="1"/>
  <variable name="X(13,50,1)" index="83160" value="1"/>
  <variable name="X(13,52,129)" index="83882" value="1"/>
  <variable name="X(13,68,2)" index="84349" value="1"/>
  <variable name="X(14,30,165)" index="85106" value="1"/>
  <variable name="X(14,31,319)" index="85854" value="1"/>
  <variable name="X(14,32,166)" index="86295" value="1"/>
  <variable name="X(14,69,108)" index="86831" value="1"/>
  <variable name="X(15,29,175)" index="87492" value="1"/>
  <variable name="X(15,70,306)" index="88217" value="1"/>
  <variable name="X(16,29,179)" index="88684" value="1"/>
  <variable name="X(16,51,178)" index="89277" value="1"/>
  <variable name="X(16,71,28)" index="89721" value="1"/>
  <variable name="X(17,20,190)" index="90477" value="1"/>
  <variable name="X(17,36,122)" index="91003" value="1"/>
  <variable name="X(17,38,326)" index="91801" value="1"/>
  <variable name="X(17,44,198)" index="92267" value="1"/>
  <variable name="X(17,50,182)" index="92845" value="1"/>
  <variable name="X(17,72,3)" index="93260" value="1"/>
  <variable name="X(18,20,203)" index="94054" value="1"/>
  <variable name="X(18,73,309)" index="94754" value="1"/>
  <variable name="X(19,11,106)" index="95145" value="1"/>
  <variable name="X(19,20,132)" index="95765" value="1"/>
  <variable name="X(19,74,111)" index="96338" value="1"/>
  <variable name="X(20,9,132)" index="96953" value="1"/>
  <variable name="X(20,17,214)" index="97629" value="1"/>
  <variable name="X(20,18,309)" index="98318" value="1"/>
  <variable name="X(20,19,106)" index="98709" value="1"/>
  <variable name="X(20,21,312)" index="99509" value="1"/>
  <variable name="X(20,22,113)" index="99904" value="1"/>
  <variable name="X(20,75,30)" index="100415" value="1"/>
  <variable name="X(21,20,223)" index="101202" value="1"/>
  <variable name="X(21,76,312)" index="101885" value="1"/>
  <variable name="X(22,77,113)" index="102280" value="1"/>
  <variable name="X(23,32,226)" index="102987" value="1"/>
  <variable name="X(23,78,114)" index="103469" value="1"/>
  <variable name="X(24,32,236)" index="104185" value="1"/>
  <variable name="X(24,79,4)" index="104547" value="1"/>
  <variable name="X(25,50,241)" index="105378" value="1"/>
  <variable name="X(25,80,316)" index="106047" value="1"/>
  <variable name="X(26,13,135)" index="106460" value="1"/>
  <variable name="X(26,27,317)" index="107236" value="1"/>
  <variable name="X(26,54,259)" index="107772" value="1"/>
  <variable name="X(27,26,269)" index="108376" value="1"/>
  <variable name="X(27,82,317)" index="109018" value="1"/>
  <variable name="X(28,29,272)" index="109567" value="1"/>
  <variable name="X(29,13,175)" index="110064" value="1"/>
  <variable name="X(29,15,306)" index="110789" value="1"/>
  <variable name="X(29,16,28)" index="111105" value="1"/>
  <variable name="X(29,30,176)" index="111847" value="1"/>
  <variable name="X(29,84,5)" index="112270" value="1"/>
  <variable name="X(30,1,12)" index="112871" value="1"/>
  <variable name="X(30,3,44)" index="113497" value="1"/>
  <variable name="X(30,13,1)" index="114048" value="1"/>
  <variable name="X(30,14,144)" index="114785" value="1"/>
  <variable name="X(30,29,5)" index="115240" value="1"/>
  <variable name="X(30,32,4)" index="115833" value="1"/>
  <variable name="X(30,47,9)" index="116432" value="1"/>
  <variable name="X(30,51,35)" index="117052" value="1"/>
  <variable name="X(30,85,6)" index="117617" value="1"/>
  <variable name="X(31,14,341)" index="118546" value="1"/>
  <variable name="X(31,86,319)" index="119118" value="1"/>
  <variable name="X(32,4,23)" index="119416" value="1"/>
  <variable name="X(32,14,108)" index="120095" value="1"/>
  <variable name="X(32,23,114)" index="120695" value="1"/>
  <variable name="X(32,24,4)" index="121179" value="1"/>
  <variable name="X(32,30,43)" index="121812" value="1"/>
  <variable name="X(32,33,80)" index="122443" value="1"/>
  <variable name="X(32,34,55)" index="123012" value="1"/>
  <variable name="X(32,35,36)" index="123587" value="1"/>
  <variable name="X(32,46,39)" index="124184" value="1"/>
  <variable name="X(32,50,45)" index="124784" value="1"/>
  <variable name="X(32,51,357)" index="125690" value="1"/>
  <variable name="X(32,87,7)" index="125934" value="1"/>
  <variable name="X(33,32,388)" index="126909" value="1"/>
  <variable name="X(33,88,35)" index="127150" value="1"/>
  <variable name="X(34,32,392)" index="128101" value="1"/>
  <variable name="X(34,54,55)" index="128358" value="1"/>
  <variable name="X(34,89,120)" index="129017" value="1"/>
  <variable name="X(35,32,402)" index="129893" value="1"/>
  <variable name="X(35,49,336)" index="130421" value="1"/>
  <variable name="X(35,54,414)" index="131093" value="1"/>
  <variable name="X(35,90,36)" index="131309" value="1"/>
  <variable name="X(36,17,415)" index="132282" value="1"/>
  <variable name="X(36,91,122)" index="132583" value="1"/>
  <variable name="X(37,44,420)" index="133475" value="1"/>
  <variable name="X(37,92,325)" index="133974" value="1"/>
  <variable name="X(38,17,423)" index="134666" value="1"/>
  <variable name="X(38,93,326)" index="135163" value="1"/>
  <variable name="X(39,50,426)" index="135857" value="1"/>
  <variable name="X(39,94,37)" index="136062" value="1"/>
  <variable name="X(40,7,441)" index="137060" value="1"/>
  <variable name="X(40,95,328)" index="137541" value="1"/>
  <variable name="X(41,9,26)" index="137833" value="1"/>
  <variable name="X(41,13,101)" index="138502" value="1"/>
  <variable name="X(41,96,124)" index="139119" value="1"/>
  <variable name="X(42,44,461)" index="140050" value="1"/>
  <variable name="X(42,97,330)" index="140513" value="1"/>
  <variable name="X(43,98,331)" index="141108" value="1"/>
  <variable name="X(44,13,420)" index="141791" value="1"/>
  <variable name="X(44,17,3)" index="141968" value="1"/>
  <variable name="X(44,37,325)" index="142884" value="1"/>
  <variable name="X(44,42,330)" index="143483" value="1"/>
  <variable name="X(44,43,331)" index="144078" value="1"/>
  <variable name="X(44,45,333)" index="144674" value="1"/>
  <variable name="X(44,99,8)" index="144943" value="1"/>
  <variable name="X(45,44,489)" index="146018" value="1"/>
  <variable name="X(45,100,333)" index="146456" value="1"/>
  <variable name="X(46,32,491)" index="147208" value="1"/>
  <variable name="X(46,101,39)" index="147350" value="1"/>
  <variable name="X(47,30,501)" index="148406" value="1"/>
  <variable name="X(47,102,9)" index="148508" value="1"/>
  <variable name="X(48,14,525)" index="149618" value="1"/>
  <variable name="X(49,104,336)" index="150023" value="1"/>
  <variable name="X(50,5,24)" index="150305" value="1"/>
  <variable name="X(50,6,1)" index="150876" value="1"/>
  <variable name="X(50,7,299)" index="151768" value="1"/>
  <variable name="X(50,9,72)" index="152135" value="1"/>
  <variable name="X(50,13,12)" index="152669" value="1"/>
  <variable name="X(50,17,15)" index="153266" value="1"/>
  <variable name="X(50,25,316)" index="154161" value="1"/>
  <variable name="X(50,32,61)" index="154500" value="1"/>
  <variable name="X(50,39,37)" index="155070" value="1"/>
  <variable name="X(50,54,11)" index="155638" value="1"/>
  <variable name="X(50,105,10)" index="156231" value="1"/>
  <variable name="X(51,16,357)" index="157172" value="1"/>
  <variable name="X(51,30,180)" index="157589" value="1"/>
  <variable name="X(51,32,178)" index="158181" value="1"/>
  <variable name="X(51,33,35)" index="158632" value="1"/>
  <variable name="X(51,106,338)" index="159529" value="1"/>
  <variable name="X(52,13,580)" index="160365" value="1"/>
  <variable name="X(52,107,129)" index="160508" value="1"/>
  <variable name="X(54,26,591)" index="161564" value="1"/>
  <variable name="X(54,34,259)" index="161826" value="1"/>
  <variable name="X(54,35,260)" index="162421" value="1"/>
  <variable name="X(54,50,590)" index="163345" value="1"/>
  <variable name="X(54,109,11)" index="163360" value="1"/>
  <variable name="X(55,41,594)" index="164537" value="1"/>
 </variables>
</CPLEXSolution>
